submitit INFO (2023-04-30 19:21:44,066) - Starting with JobEnvironment(job_id=27535, hostname=cpunode24, local_rank=3(5), node=0(1), global_rank=3(5))
submitit INFO (2023-04-30 19:21:44,066) - Loading pickle: /h/30/pashootan/Matrix-Mult-CP/src/../logs/2x2x2_6_Apr30_19:21:42/27535_submitted.pkl
 ! --------------------------------------------------- CP Optimizer 22.1.1.0 --
 ! Satisfiability problem - 72 variables, 237 constraints
 ! TimeLimit            = 7200
 ! Workers              = 8
 ! LogPeriod            = 10000000
 ! RandomSeed           = 7536
 ! Initial process time : 0.01s (0.01s extraction + 0.00s propagation)
 !  . Log search space  : 107.1 (before), 107.1 (after)
 !  . Memory usage      : 575.6 kB (before), 575.6 kB (after)
 ! Using parallel search with 8 workers.
 ! ----------------------------------------------------------------------------
 !               Branches  Non-fixed    W       Branch decision
                   10000k          6    6         1  = W5_2
                   10000k          6    1   F     1  = W1_2
                   10000k          6    5        -1 != V5_2
                   10000k          6    2   F    -1 != U4_3
                   10000k          6    4   F     0  = V0_0
                   10000k         10    3         0  = V3_0
                   10000k          7    7   F     0  = V0_0
                   10000k          6    8         1  = W1_1
                   20000k          6    6   F    -1  = W3_1
                   20000k          6    5         0 != V1_3
                   20000k          6    2   F     1 != U1_2
                   20000k          6    1         0 != W4_1
                   20000k          6    4   F    -1  = U0_2
                   20000k          9    3   F     0  = V3_1
                   20000k          7    8        -1  = U3_0
                   20000k          6    7         0  = V3_0
                   30000k          7    6        -1  = W3_1
                   30000k          6    5   F     1  = U3_2
                   30000k          6    2   F     0  = U3_2
                   30000k          7    1   F    -1 != W5_1
 ! Time = 391.51s, Average fail depth = 18, Memory usage = 137.3 MB
 !               Branches  Non-fixed    W       Branch decision
                   30000k          6    4        -1 != V4_3
                   30000k          8    7         1  = V2_1
                   30000k          8    3   F    -1  = V3_1
                   30000k          7    8         0 != V0_0
                   40000k          6    2   F     1 != W4_3
                   40000k          8    5         0 != V4_0
                   40000k          6    4   F     0  = V0_2
                   40000k          8    1   F     1 != U2_2
                   40000k          6    6        -1 != V3_3
                   40000k          7    7        -1  = U3_1
                   40000k          7    8   F    -1 != W1_1
                   40000k          9    3         0  = W1_1
 ! ----------------------------------------------------------------------------
 ! Search completed, model has no solution.
 ! ----------------------------------------------------------------------------
 ! Number of branches     : 395176617
 ! Number of fails        : 195020747
 ! Total memory usage     : 230.6 MB (230.5 MB CP Optimizer + 0.0 MB Concert)
 ! Time spent in solve    : 640.65s (640.65s engine + 0.01s extraction)
 ! Search speed (br. / s) : 616846.6
 ! ----------------------------------------------------------------------------
Infeasible
Saving stats to: /h/30/pashootan/Matrix-Mult-CP/logs/2x2x2_6_Apr30_19:21:42/27535_3_stats.csv
submitit INFO (2023-04-30 19:32:25,336) - Job completed successfully
